[280, 1, 2, 3, 279, 278, 4, 277, 276, 275, 274, 273, 272, 271, 16, 6, 9, 7, 8, 15, 10, 11, 12, 13, 14, 261, 260, 259, 262, 258, 257, 256, 254, 255, 252, 253, 208, 209, 207, 210, 211, 212, 213, 214, 215, 216, 217, 218, 219, 220, 221, 222, 206, 205, 204, 263, 264, 265, 266, 140, 138, 139, 267, 137, 136, 268, 135, 269, 134, 270, 141, 148, 142, 147, 143, 146, 144, 145, 199, 200, 198, 201, 196, 197, 194, 195, 202, 149, 203, 5, 249, 248, 250, 247, 251, 245, 246, 239, 231, 238, 232, 237, 233, 236, 234, 235, 240, 230, 244, 229, 241, 243, 242, 228, 227, 226, 225, 224, 223, 193, 192, 191, 190, 189, 188, 186, 187, 185, 184, 183, 182, 181, 180, 176, 179, 177, 178, 151, 152, 156, 153, 155, 154, 133, 132, 131, 130, 129, 19, 20, 21, 128, 18, 17, 127, 126, 22, 26, 27, 29, 28, 25, 23, 24, 30, 31, 125, 32, 33, 124, 34, 123, 122, 121, 120, 119, 157, 158, 159, 160, 175, 161, 162, 163, 164, 165, 174, 173, 106, 107, 105, 104, 103, 108, 109, 110, 112, 111, 114, 113, 115, 116, 117, 90, 89, 88, 87, 82, 83, 84, 86, 85, 65, 66, 64, 81, 63, 62, 76, 74, 75, 118, 73, 72, 71, 67, 70, 61, 59, 58, 68, 60, 44, 57, 43, 45, 42, 56, 46, 55, 41, 47, 40, 54, 48, 53, 39, 49, 38, 52, 50, 51, 37, 69, 36, 35, 77, 79, 78, 91, 80, 93, 94, 92, 98, 97, 95, 96, 99, 171, 172, 101, 169, 170, 100, 102, 168, 167, 166, 150, 280]